  Job Started  at 19:54.03 29th August     2019

  Number of CPUs =     1

  Total number of configurations input =   1

*  Input for Configuration =   1                                               *

  Formula = Mg16Si8O48

  Number of irreducible atoms/shells =     120

  Total number atoms/shells =     120

  Dimensionality = 3               :  Bulk

  Charge on solid   =  64.000000 =>neutralising background added

  Cartesian lattice vectors (Angstroms) :

        4.444900    0.000000    0.000000
        0.000000    4.664800    0.000000
        0.000000    0.000000    6.454400

  Cell parameters (Angstroms/Degrees):

  a =       4.4449    alpha =  90.0000
  b =       4.6648    beta  =  90.0000
  c =       6.4544    gamma =  90.0000

  Initial cell volume =         133.829206 Angs**3

  Temperature of configuration =  0.000     K

  Pressure of configuration =         0.000 GPa

  Fractional coordinates of asymmetric unit :

   No.  Atomic       x           y          z         Charge      Occupancy
        Label      (Frac)      (Frac)     (Frac)        (e)         (Frac)
      1 Mg    c    0.981800    0.081700    0.250000     2.00000    1.000000
      2 Mg    c    0.518200 *  0.918300 *  0.750000 *   2.00000    1.000000
      3 Mg    c    0.481800 *  0.418300 *  0.250000 *   2.00000    1.000000
      4 Mg    c    0.018200 *  0.581700 *  0.750000 *   2.00000    1.000000
      5 Mg    c    0.018200 *  0.918300 *  0.750000 *   2.00000    1.000000
      6 Mg    c    0.481800 *  0.081700 *  0.250000 *   2.00000    1.000000
      7 Mg    c    0.518200 *  0.581700 *  0.750000 *   2.00000    1.000000
      8 Mg    c    0.981800 *  0.418300 *  0.250000 *   2.00000    1.000000
      9 Mg    c    0.518200 *  0.581700 *  0.250000 *   2.00000    1.000000
     10 Mg    c    0.981800 *  0.418300 *  0.750000 *   2.00000    1.000000
     11 Mg    c    0.018200 *  0.918300 *  0.250000 *   2.00000    1.000000
     12 Mg    c    0.481800 *  0.081700 *  0.750000 *   2.00000    1.000000
     13 Mg    c    0.481800 *  0.418300 *  0.750000 *   2.00000    1.000000
     14 Mg    c    0.018200 *  0.581700 *  0.250000 *   2.00000    1.000000
     15 Mg    c    0.981800 *  0.081700 *  0.750000 *   2.00000    1.000000
     16 Mg    c    0.518200 *  0.918300 *  0.250000 *   2.00000    1.000000
     17 Si    c    0.000000 *  0.500000 *  0.500000 *   4.00000    1.000000
     18 Si    c    0.500000 *  0.500000 *  0.000000 *   4.00000    1.000000
     19 Si    c    0.500000 *  0.000000 *  0.000000 *   4.00000    1.000000
     20 Si    c    0.000000 *  0.000000 *  0.500000 *   4.00000    1.000000
     21 Si    c    0.000000 *  0.500000 *  0.000000 *   4.00000    1.000000
     22 Si    c    0.500000 *  0.500000 *  0.500000 *   4.00000    1.000000
     23 Si    c    0.500000 *  0.000000 *  0.500000 *   4.00000    1.000000
     24 Si    c    0.000000 *  0.000000 *  0.000000 *   4.00000    1.000000
     25 O     c    0.393100 *  0.975500 *  0.250000 *   0.00000    1.000000
     26 O     c    0.106900 *  0.024500 *  0.750000 *   0.00000    1.000000
     27 O     c    0.893100 *  0.524500 *  0.250000 *   0.00000    1.000000
     28 O     c    0.606900 *  0.475500 *  0.750000 *   0.00000    1.000000
     29 O     c    0.606900 *  0.024500 *  0.750000 *   0.00000    1.000000
     30 O     c    0.893100 *  0.975500 *  0.250000 *   0.00000    1.000000
     31 O     c    0.106900 *  0.475500 *  0.750000 *   0.00000    1.000000
     32 O     c    0.393100 *  0.524500 *  0.250000 *   0.00000    1.000000
     33 O     c    0.106900 *  0.475500 *  0.250000 *   0.00000    1.000000
     34 O     c    0.393100 *  0.524500 *  0.750000 *   0.00000    1.000000
     35 O     c    0.606900 *  0.024500 *  0.250000 *   0.00000    1.000000
     36 O     c    0.893100 *  0.975500 *  0.750000 *   0.00000    1.000000
     37 O     c    0.893100 *  0.524500 *  0.750000 *   0.00000    1.000000
     38 O     c    0.606900 *  0.475500 *  0.250000 *   0.00000    1.000000
     39 O     c    0.393100 *  0.975500 *  0.750000 *   0.00000    1.000000
     40 O     c    0.106900 *  0.024500 *  0.250000 *   0.00000    1.000000
     41 O     c    0.311700 *  0.693900 *  0.562100 *   0.00000    1.000000
     42 O     c    0.188300 *  0.306100 *  0.062100 *   0.00000    1.000000
     43 O     c    0.811700 *  0.806100 *  0.937900 *   0.00000    1.000000
     44 O     c    0.688300 *  0.193900 *  0.437900 *   0.00000    1.000000
     45 O     c    0.688300 *  0.306100 *  0.437900 *   0.00000    1.000000
     46 O     c    0.811700 *  0.693900 *  0.937900 *   0.00000    1.000000
     47 O     c    0.188300 *  0.193900 *  0.062100 *   0.00000    1.000000
     48 O     c    0.311700 *  0.806100 *  0.562100 *   0.00000    1.000000
     49 O     c    0.188300 *  0.193900 *  0.937900 *   0.00000    1.000000
     50 O     c    0.311700 *  0.806100 *  0.437900 *   0.00000    1.000000
     51 O     c    0.688300 *  0.306100 *  0.562100 *   0.00000    1.000000
     52 O     c    0.811700 *  0.693900 *  0.062100 *   0.00000    1.000000
     53 O     c    0.811700 *  0.806100 *  0.062100 *   0.00000    1.000000
     54 O     c    0.688300 *  0.193900 *  0.562100 *   0.00000    1.000000
     55 O     c    0.311700 *  0.693900 *  0.437900 *   0.00000    1.000000
     56 O     c    0.188300 *  0.306100 *  0.937900 *   0.00000    1.000000
     57 O     c    0.688300 *  0.306100 *  0.062100 *   0.00000    1.000000
     58 O     c    0.811700 *  0.693900 *  0.562100 *   0.00000    1.000000
     59 O     c    0.188300 *  0.193900 *  0.437900 *   0.00000    1.000000
     60 O     c    0.311700 *  0.806100 *  0.937900 *   0.00000    1.000000
     61 O     c    0.311700 *  0.693900 *  0.937900 *   0.00000    1.000000
     62 O     c    0.188300 *  0.306100 *  0.437900 *   0.00000    1.000000
     63 O     c    0.811700 *  0.806100 *  0.562100 *   0.00000    1.000000
     64 O     c    0.688300 *  0.193900 *  0.062100 *   0.00000    1.000000
     65 O     c    0.811700 *  0.806100 *  0.437900 *   0.00000    1.000000
     66 O     c    0.688300 *  0.193900 *  0.937900 *   0.00000    1.000000
     67 O     c    0.311700 *  0.693900 *  0.062100 *   0.00000    1.000000
     68 O     c    0.188300 *  0.306100 *  0.562100 *   0.00000    1.000000
     69 O     c    0.188300 *  0.193900 *  0.562100 *   0.00000    1.000000
     70 O     c    0.311700 *  0.806100 *  0.062100 *   0.00000    1.000000
     71 O     c    0.688300 *  0.306100 *  0.937900 *   0.00000    1.000000
     72 O     c    0.811700 *  0.693900 *  0.437900 *   0.00000    1.000000
     73 O     s    0.393100 *  0.975500 *  0.250000 *   0.00000    1.000000
     74 O     s    0.106900 *  0.024500 *  0.750000 *   0.00000    1.000000
     75 O     s    0.893100 *  0.524500 *  0.250000 *   0.00000    1.000000
     76 O     s    0.606900 *  0.475500 *  0.750000 *   0.00000    1.000000
     77 O     s    0.606900 *  0.024500 *  0.750000 *   0.00000    1.000000
     78 O     s    0.893100 *  0.975500 *  0.250000 *   0.00000    1.000000
     79 O     s    0.106900 *  0.475500 *  0.750000 *   0.00000    1.000000
     80 O     s    0.393100 *  0.524500 *  0.250000 *   0.00000    1.000000
     81 O     s    0.106900 *  0.475500 *  0.250000 *   0.00000    1.000000
     82 O     s    0.393100 *  0.524500 *  0.750000 *   0.00000    1.000000
     83 O     s    0.606900 *  0.024500 *  0.250000 *   0.00000    1.000000
     84 O     s    0.893100 *  0.975500 *  0.750000 *   0.00000    1.000000
     85 O     s    0.893100 *  0.524500 *  0.750000 *   0.00000    1.000000
     86 O     s    0.606900 *  0.475500 *  0.250000 *   0.00000    1.000000
     87 O     s    0.393100 *  0.975500 *  0.750000 *   0.00000    1.000000
     88 O     s    0.106900 *  0.024500 *  0.250000 *   0.00000    1.000000
     89 O     s    0.311700 *  0.693900 *  0.562100 *   0.00000    1.000000
     90 O     s    0.188300 *  0.306100 *  0.062100 *   0.00000    1.000000
     91 O     s    0.811700 *  0.806100 *  0.937900 *   0.00000    1.000000
     92 O     s    0.688300 *  0.193900 *  0.437900 *   0.00000    1.000000
     93 O     s    0.688300 *  0.306100 *  0.437900 *   0.00000    1.000000
     94 O     s    0.811700 *  0.693900 *  0.937900 *   0.00000    1.000000
     95 O     s    0.188300 *  0.193900 *  0.062100 *   0.00000    1.000000
     96 O     s    0.311700 *  0.806100 *  0.562100 *   0.00000    1.000000
     97 O     s    0.188300 *  0.193900 *  0.937900 *   0.00000    1.000000
     98 O     s    0.311700 *  0.806100 *  0.437900 *   0.00000    1.000000
     99 O     s    0.688300 *  0.306100 *  0.562100 *   0.00000    1.000000
    100 O     s    0.811700 *  0.693900 *  0.062100 *   0.00000    1.000000
    101 O     s    0.811700 *  0.806100 *  0.062100 *   0.00000    1.000000
    102 O     s    0.688300 *  0.193900 *  0.562100 *   0.00000    1.000000
    103 O     s    0.311700 *  0.693900 *  0.437900 *   0.00000    1.000000
    104 O     s    0.188300 *  0.306100 *  0.937900 *   0.00000    1.000000
    105 O     s    0.688300 *  0.306100 *  0.062100 *   0.00000    1.000000
    106 O     s    0.811700 *  0.693900 *  0.562100 *   0.00000    1.000000
    107 O     s    0.188300 *  0.193900 *  0.437900 *   0.00000    1.000000
    108 O     s    0.311700 *  0.806100 *  0.937900 *   0.00000    1.000000
    109 O     s    0.311700 *  0.693900 *  0.937900 *   0.00000    1.000000
    110 O     s    0.188300 *  0.306100 *  0.437900 *   0.00000    1.000000
    111 O     s    0.811700 *  0.806100 *  0.562100 *   0.00000    1.000000
    112 O     s    0.688300 *  0.193900 *  0.062100 *   0.00000    1.000000
    113 O     s    0.811700 *  0.806100 *  0.437900 *   0.00000    1.000000
    114 O     s    0.688300 *  0.193900 *  0.937900 *   0.00000    1.000000
    115 O     s    0.311700 *  0.693900 *  0.062100 *   0.00000    1.000000
    116 O     s    0.188300 *  0.306100 *  0.562100 *   0.00000    1.000000
    117 O     s    0.188300 *  0.193900 *  0.562100 *   0.00000    1.000000
    118 O     s    0.311700 *  0.806100 *  0.062100 *   0.00000    1.000000
    119 O     s    0.688300 *  0.306100 *  0.937900 *   0.00000    1.000000
    120 O     s    0.811700 *  0.693900 *  0.437900 *   0.00000    1.000000

*  General input information                                                   *

  Species output for all configurations :

  Species    Type    Atomic    Atomic    Charge       Radii (Angs)     Library
                     Number     Mass       (e)     Cova   Ionic  VDW   Symbol
    Mg       Core       12      24.31   2.000000   1.100  0.000  1.640
    Si       Core       14      28.09   4.000000   1.200  0.000  2.100
    O        Core        8      16.00   0.000000   0.730  0.000  1.360
    O        Shell       8       0.00   0.000000   0.730  0.000  1.360

  Lattice summation method               =    Ewald          (3-D)
                                         =    Parry          (2-D)
                                         =    Saunders et al (1-D)
  Accuracy factor for lattice sums       =   12.000

  Time limit = Infinity

*  Output for configuration   1                                                *

  Components of energy :

[...]
    23  Si    c     0.499694    0.995329    0.519393    0.000000
    24  Si    c     0.000237    0.010328    0.959379    0.000000
    25  O     c     0.393100    0.975500    0.250000    0.000000
    26  O     c     0.106900    0.024500    0.750000    0.000000
    27  O     c     0.893100    0.524500    0.250000    0.000000
    28  O     c     0.606900    0.475500    0.750000    0.000000
    29  O     c     0.606900    0.024500    0.750000    0.000000
    30  O     c     0.893100    0.975500    0.250000    0.000000
    31  O     c     0.106900    0.475500    0.750000    0.000000
    32  O     c     0.393100    0.524500    0.250000    0.000000
    33  O     c     0.106900    0.475500    0.250000    0.000000
    34  O     c     0.393100    0.524500    0.750000    0.000000
    35  O     c     0.606900    0.024500    0.250000    0.000000
    36  O     c     0.893100    0.975500    0.750000    0.000000
    37  O     c     0.893100    0.524500    0.750000    0.000000
    38  O     c     0.606900    0.475500    0.250000    0.000000
    39  O     c     0.393100    0.975500    0.750000    0.000000
    40  O     c     0.106900    0.024500    0.250000    0.000000
    41  O     c     0.311700    0.693900    0.562100    0.000000
    42  O     c     0.188300    0.306100    0.062100    0.000000
    43  O     c     0.811700    0.806100    0.937900    0.000000
    44  O     c     0.688300    0.193900    0.437900    0.000000
    45  O     c     0.688300    0.306100    0.437900    0.000000
    46  O     c     0.811700    0.693900    0.937900    0.000000
    47  O     c     0.188300    0.193900    0.062100    0.000000
    48  O     c     0.311700    0.806100    0.562100    0.000000
    49  O     c     0.188300    0.193900    0.937900    0.000000
    50  O     c     0.311700    0.806100    0.437900    0.000000
    51  O     c     0.688300    0.306100    0.562100    0.000000
    52  O     c     0.811700    0.693900    0.062100    0.000000
    53  O     c     0.811700    0.806100    0.062100    0.000000
    54  O     c     0.688300    0.193900    0.562100    0.000000
    55  O     c     0.311700    0.693900    0.437900    0.000000
    56  O     c     0.188300    0.306100    0.937900    0.000000
    57  O     c     0.688300    0.306100    0.062100    0.000000
    58  O     c     0.811700    0.693900    0.562100    0.000000
    59  O     c     0.188300    0.193900    0.437900    0.000000
    60  O     c     0.311700    0.806100    0.937900    0.000000
    61  O     c     0.311700    0.693900    0.937900    0.000000
    62  O     c     0.188300    0.306100    0.437900    0.000000
    63  O     c     0.811700    0.806100    0.562100    0.000000
    64  O     c     0.688300    0.193900    0.062100    0.000000
    65  O     c     0.811700    0.806100    0.437900    0.000000
    66  O     c     0.688300    0.193900    0.937900    0.000000
    67  O     c     0.311700    0.693900    0.062100    0.000000
    68  O     c     0.188300    0.306100    0.562100    0.000000
    69  O     c     0.188300    0.193900    0.562100    0.000000
    70  O     c     0.311700    0.806100    0.062100    0.000000
    71  O     c     0.688300    0.306100    0.937900    0.000000
    72  O     c     0.811700    0.693900    0.437900    0.000000
    73  O     s     0.393100    0.975500    0.250000    0.000000
    74  O     s     0.106900    0.024500    0.750000    0.000000
    75  O     s     0.893100    0.524500    0.250000    0.000000
    76  O     s     0.606900    0.475500    0.750000    0.000000
    77  O     s     0.606900    0.024500    0.750000    0.000000
    78  O     s     0.893100    0.975500    0.250000    0.000000
    79  O     s     0.106900    0.475500    0.750000    0.000000
    80  O     s     0.393100    0.524500    0.250000    0.000000
    81  O     s     0.106900    0.475500    0.250000    0.000000
    82  O     s     0.393100    0.524500    0.750000    0.000000
    83  O     s     0.606900    0.024500    0.250000    0.000000
    84  O     s     0.893100    0.975500    0.750000    0.000000
    85  O     s     0.893100    0.524500    0.750000    0.000000
    86  O     s     0.606900    0.475500    0.250000    0.000000
    87  O     s     0.393100    0.975500    0.750000    0.000000
    88  O     s     0.106900    0.024500    0.250000    0.000000
    89  O     s     0.311700    0.693900    0.562100    0.000000
    90  O     s     0.188300    0.306100    0.062100    0.000000
    91  O     s     0.811700    0.806100    0.937900    0.000000
    92  O     s     0.688300    0.193900    0.437900    0.000000
    93  O     s     0.688300    0.306100    0.437900    0.000000
    94  O     s     0.811700    0.693900    0.937900    0.000000
    95  O     s     0.188300    0.193900    0.062100    0.000000
    96  O     s     0.311700    0.806100    0.562100    0.000000
    97  O     s     0.188300    0.193900    0.937900    0.000000
    98  O     s     0.311700    0.806100    0.437900    0.000000
    99  O     s     0.688300    0.306100    0.562100    0.000000
   100  O     s     0.811700    0.693900    0.062100    0.000000
   101  O     s     0.811700    0.806100    0.062100    0.000000
   102  O     s     0.688300    0.193900    0.562100    0.000000
   103  O     s     0.311700    0.693900    0.437900    0.000000
   104  O     s     0.188300    0.306100    0.937900    0.000000
   105  O     s     0.688300    0.306100    0.062100    0.000000
   106  O     s     0.811700    0.693900    0.562100    0.000000
   107  O     s     0.188300    0.193900    0.437900    0.000000
   108  O     s     0.311700    0.806100    0.937900    0.000000
   109  O     s     0.311700    0.693900    0.937900    0.000000
   110  O     s     0.188300    0.306100    0.437900    0.000000
   111  O     s     0.811700    0.806100    0.562100    0.000000
   112  O     s     0.688300    0.193900    0.062100    0.000000
   113  O     s     0.811700    0.806100    0.437900    0.000000
   114  O     s     0.688300    0.193900    0.937900    0.000000
   115  O     s     0.311700    0.693900    0.062100    0.000000
   116  O     s     0.188300    0.306100    0.562100    0.000000
   117  O     s     0.188300    0.193900    0.562100    0.000000
   118  O     s     0.311700    0.806100    0.062100    0.000000
   119  O     s     0.688300    0.306100    0.937900    0.000000
   120  O     s     0.811700    0.693900    0.437900    0.000000

  Final Cartesian lattice vectors (Angstroms) :

        0.549466   -0.009272    0.000000
       -0.009731    0.560573    0.000000
        0.000000    0.000000    0.757906

  Final cell parameters and derivatives :

       a            0.549544 Angstrom     dE/de1(xx)  8826.013950 eV/strain
       b            0.560657 Angstrom     dE/de2(yy)  3568.460828 eV/strain
       c            0.757906 Angstrom     dE/de3(zz)  3886.128581 eV/strain
       alpha       90.000000 Degrees      dE/de4(yz)     0.000000 eV/strain
       beta        90.000000 Degrees      dE/de5(xz)    -0.000000 eV/strain
       gamma       91.961270 Degrees      dE/de6(xy)   150.660463 eV/strain

  Primitive cell volume =             0.233378 Angs**3

  Density of cell =   9831.119054 g/cm**3

  Non-primitive cell volume =             0.233378 Angs**3

  Final internal derivatives :

   No.  Atomic          a             b             c           Radius
        Label          (eV)          (eV)          (eV)        (eV/Angs)
      1 Mg    c       0.000000      0.000000      0.000000      0.000000
      2 Mg    c    -472.607223    -16.302600     -0.000000      0.000000
      3 Mg    c     416.408123   -380.007191      0.000000      0.000000
      4 Mg    c    -430.932577    491.545849     -0.000000      0.000000
      5 Mg    c    -567.022317    274.405397     -0.000000      0.000000
      6 Mg    c     148.868248    900.693730     -0.000000      0.000000
      7 Mg    c    -515.718150    370.143061     -0.000000      0.000000
      8 Mg    c     712.890234    119.937650     -0.000000      0.000000
      9 Mg    c    -505.058267    515.222788     -0.000000      0.000000
     10 Mg    c     479.699822   -832.030365     -0.000000      0.000000
     11 Mg    c    -326.301741   -819.840272     -0.000000      0.000000
     12 Mg    c     422.834042    220.785118     -0.000000      0.000000
     13 Mg    c     476.746039   -580.596104     -0.000000      0.000000
     14 Mg    c    -413.602192     56.144694     -0.000000      0.000000
     15 Mg    c     628.527810     23.844473     -0.000000      0.000000
     16 Mg    c    -196.577327  -1016.449860     -0.000000      0.000000
     17 Si    c      55.161212   -205.996016    716.663325      0.000000
     18 Si    c       1.446797     29.068854  -1541.706148      0.000000
     19 Si    c      32.121795    -25.027216  -2585.754504      0.000000
     20 Si    c     -33.037055    266.636633   3539.988997      0.000000
     21 Si    c      55.161212   -205.996016   -716.663325      0.000000
     22 Si    c       1.446797     29.068854   1541.706148      0.000000
     23 Si    c      32.121795    -25.027216   2585.754504      0.000000
     24 Si    c     -33.037055    266.636633  -3539.988997      0.000000
     25 O     c       0.000000      0.000000      0.000000      0.000000
     26 O     c       0.000000      0.000000      0.000000      0.000000
     27 O     c       0.000000      0.000000      0.000000      0.000000
     28 O     c       0.000000      0.000000      0.000000      0.000000
     29 O     c       0.000000      0.000000      0.000000      0.000000
     30 O     c       0.000000      0.000000      0.000000      0.000000
     31 O     c       0.000000      0.000000      0.000000      0.000000
     32 O     c       0.000000      0.000000      0.000000      0.000000
     33 O     c       0.000000      0.000000      0.000000      0.000000
     34 O     c       0.000000      0.000000      0.000000      0.000000
     35 O     c       0.000000      0.000000      0.000000      0.000000
     36 O     c       0.000000      0.000000      0.000000      0.000000
     37 O     c       0.000000      0.000000      0.000000      0.000000
     38 O     c       0.000000      0.000000      0.000000      0.000000
     39 O     c       0.000000      0.000000      0.000000      0.000000
     40 O     c       0.000000      0.000000      0.000000      0.000000
     41 O     c       0.000000      0.000000      0.000000      0.000000
     42 O     c       0.000000      0.000000      0.000000      0.000000
     43 O     c       0.000000      0.000000      0.000000      0.000000
     44 O     c       0.000000      0.000000      0.000000      0.000000
     45 O     c       0.000000      0.000000      0.000000      0.000000
     46 O     c       0.000000      0.000000      0.000000      0.000000
     47 O     c       0.000000      0.000000      0.000000      0.000000
     48 O     c       0.000000      0.000000      0.000000      0.000000
     49 O     c       0.000000      0.000000      0.000000      0.000000
     50 O     c       0.000000      0.000000      0.000000      0.000000
     51 O     c       0.000000      0.000000      0.000000      0.000000
     52 O     c       0.000000      0.000000      0.000000      0.000000
     53 O     c       0.000000      0.000000      0.000000      0.000000
     54 O     c       0.000000      0.000000      0.000000      0.000000
     55 O     c       0.000000      0.000000      0.000000      0.000000
     56 O     c       0.000000      0.000000      0.000000      0.000000
     57 O     c       0.000000      0.000000      0.000000      0.000000
     58 O     c       0.000000      0.000000      0.000000      0.000000
     59 O     c       0.000000      0.000000      0.000000      0.000000
     60 O     c       0.000000      0.000000      0.000000      0.000000
     61 O     c       0.000000      0.000000      0.000000      0.000000
     62 O     c       0.000000      0.000000      0.000000      0.000000
     63 O     c       0.000000      0.000000      0.000000      0.000000
     64 O     c       0.000000      0.000000      0.000000      0.000000
     65 O     c       0.000000      0.000000      0.000000      0.000000
     66 O     c       0.000000      0.000000      0.000000      0.000000
     67 O     c       0.000000      0.000000      0.000000      0.000000
     68 O     c       0.000000      0.000000      0.000000      0.000000
     69 O     c       0.000000      0.000000      0.000000      0.000000
     70 O     c       0.000000      0.000000      0.000000      0.000000
     71 O     c       0.000000      0.000000      0.000000      0.000000
     72 O     c       0.000000      0.000000      0.000000      0.000000
     73 O     s       0.000000      0.000000      0.000000      0.000000
     74 O     s       0.000000      0.000000      0.000000      0.000000
     75 O     s       0.000000      0.000000      0.000000      0.000000
     76 O     s       0.000000      0.000000      0.000000      0.000000
     77 O     s       0.000000      0.000000      0.000000      0.000000
     78 O     s       0.000000      0.000000      0.000000      0.000000
     79 O     s       0.000000      0.000000      0.000000      0.000000
     80 O     s       0.000000      0.000000      0.000000      0.000000
     81 O     s       0.000000      0.000000      0.000000      0.000000
     82 O     s       0.000000      0.000000      0.000000      0.000000
     83 O     s       0.000000      0.000000      0.000000      0.000000
     84 O     s       0.000000      0.000000      0.000000      0.000000
     85 O     s       0.000000      0.000000      0.000000      0.000000
     86 O     s       0.000000      0.000000      0.000000      0.000000
     87 O     s       0.000000      0.000000      0.000000      0.000000
     88 O     s       0.000000      0.000000      0.000000      0.000000
     89 O     s       0.000000      0.000000      0.000000      0.000000
     90 O     s       0.000000      0.000000      0.000000      0.000000
     91 O     s       0.000000      0.000000      0.000000      0.000000
     92 O     s       0.000000      0.000000      0.000000      0.000000
     93 O     s       0.000000      0.000000      0.000000      0.000000
     94 O     s       0.000000      0.000000      0.000000      0.000000
     95 O     s       0.000000      0.000000      0.000000      0.000000
     96 O     s       0.000000      0.000000      0.000000      0.000000
     97 O     s       0.000000      0.000000      0.000000      0.000000
     98 O     s       0.000000      0.000000      0.000000      0.000000
     99 O     s       0.000000      0.000000      0.000000      0.000000
    100 O     s       0.000000      0.000000      0.000000      0.000000
    101 O     s       0.000000      0.000000      0.000000      0.000000
    102 O     s       0.000000      0.000000      0.000000      0.000000
    103 O     s       0.000000      0.000000      0.000000      0.000000
    104 O     s       0.000000      0.000000      0.000000      0.000000
    105 O     s       0.000000      0.000000      0.000000      0.000000
    106 O     s       0.000000      0.000000      0.000000      0.000000
    107 O     s       0.000000      0.000000      0.000000      0.000000
    108 O     s       0.000000      0.000000      0.000000      0.000000
    109 O     s       0.000000      0.000000      0.000000      0.000000
    110 O     s       0.000000      0.000000      0.000000      0.000000
    111 O     s       0.000000      0.000000      0.000000      0.000000
    112 O     s       0.000000      0.000000      0.000000      0.000000
    113 O     s       0.000000      0.000000      0.000000      0.000000
    114 O     s       0.000000      0.000000      0.000000      0.000000
    115 O     s       0.000000      0.000000      0.000000      0.000000
    116 O     s       0.000000      0.000000      0.000000      0.000000
    117 O     s       0.000000      0.000000      0.000000      0.000000
    118 O     s       0.000000      0.000000      0.000000      0.000000
    119 O     s       0.000000      0.000000      0.000000      0.000000
    120 O     s       0.000000      0.000000      0.000000      0.000000
  Maximum abs       712.890234   1016.449860   3539.988997      0.000000

  Time to end of optimisation =       0.3773 seconds

  Timing analysis for GULP :

  Task / Subroutine                                          Time (Seconds)
  Calculation of reciprocal space energy and derivatives          0.1316
  Calculation of real space energy and derivatives                0.1945
  Symmetry generation of equivalent positions                     0.0034
  Global summation overhead                                       0.0006

  Dump file written as gulpopt

  Job Finished at 19:54.03 29th August     2019